 &CONTROL
    pseudo_dir = '.'
 /

 &SYSTEM
    ibrav = 1
    A = 20.0
    nat = 20
    ntyp = 1
    ecutwfc = 18.0
 /

 &ELECTRONS
 /

ATOMIC_SPECIES
 C  12.011  C.pz-vbc.UPF

ATOMIC_POSITIONS angstrom
 C -3.65674495975952492E-06  1.20219407167061809E+00  4.62283171024014172E-01
 C -1.14327135741295849E+00  3.71484403063538027E-01  4.62216940503020757E-01
 C  1.14326547295368730E+00  3.71482790924896999E-01  4.62215154918488413E-01
 C -7.06615580306288238E-01 -9.72537686438217253E-01  4.62265417249178967E-01
 C  7.06608108342714925E-01 -9.72538720528096978E-01  4.62267357010078095E-01
 C -6.65241389873265158E-06  2.55313785592614773E+00  1.04212479793258841E-02
 C -2.42782572901875815E+00  7.88981814519395086E-01  1.01158008795127364E-02
 C  2.42782210330856030E+00  7.88977587575067862E-01  1.01147968452068113E-02
 C -1.50036644139153741E+00 -2.06536310621719643E+00  1.02443172367786481E-02
 C  1.50035828606539368E+00 -2.06536767663036303E+00  1.02502324531494170E-02
 C  1.33577993369837911E+00  2.89529454598500324E+00 -2.36177695528775822E-01
 C -3.16581405459180276E+00 -3.76043912855772711E-01 -2.36338818329709349E-01
 C  2.34035564609987778E+00  2.16521278398379247E+00 -2.36265947477253740E-01
 C -2.78233824929060258E+00 -1.55718816640414603E+00 -2.36238804536112207E-01
 C  3.16583325808838945E+00 -3.76048155476636281E-01 -2.36341777528239899E-01
 C -6.20941689587572343E-01 -3.12748546600286348E+00 -2.36174059697732613E-01
 C  2.78233467221600872E+00 -1.55719394862417015E+00 -2.36238700039225091E-01
 C  6.20960289828824452E-01 -3.12750875107899295E+00 -2.36178831737171913E-01
 C -1.33578908415759967E+00  2.89530463530614002E+00 -2.36178895033373443E-01
 C -2.34034527568585959E+00  2.16520810130185648E+00 -2.36260906191159858E-01

K_POINTS gamma
