&CONTROL
   pseudo_dir = '.'
/

&SYSTEM
   ibrav = 0
   nat = 20
   ntyp = 1
   ecutwfc = 18.0
/

&ELECTRONS
/

ATOMIC_SPECIES
C  12.011  C.pz-vbc.UPF

ATOMIC_POSITIONS angstrom
C 9.999986741506746 11.318296129557044 10.349312474276125
C 8.856719040838748 10.487586460949965 10.349246243755132
C 11.143255871205394 10.487584848811323 10.3492444581706
C 9.293374817945418 9.143564371448209 10.349294720501291
C 10.706598506594421 9.143563337358328 10.349296660262189
C 9.999983745837808 12.669239913812573 9.897450551231437
C 7.572164669232947 10.905083872405822 9.897145104131624
C 12.427812501560267 10.905079645461495 9.897144100097318
C 8.499623956860168 8.05073895166923 9.89727362048889
C 11.5003486843171 8.050734381256063 9.89727953570526
C 11.335770331950085 13.011396603871429 9.650851607723336
C 6.8341763436599035 9.740058145030654 9.650690484922402
C 12.340346044351584 12.281314841870218 9.650763355774858
C 7.217652148961103 8.55891389148228 9.650790498715999
C 13.165823656340095 9.74005390240979 9.650687525723871
C 9.379048708664133 6.988616591883563 9.650855243554378
C 12.782325070467714 8.558908109262255 9.650790603212887
C 10.62095068808053 6.988593306807433 9.65085047151494
C 8.664201314094106 13.011406693192566 9.650850408218737
C 7.659645122565847 12.281310159188283 9.650768397060952

K_POINTS gamma

CELL_PARAMETERS angstrom
20.0  0.0  0.0
 0.0 20.0  0.0
 0.0  0.0 20.0
