 &CONTROL
    pseudo_dir = '.'
    calculation = 'bands'
 /

 &SYSTEM
    ibrav =  2
    A = 2.863
    nat =  1
    ntyp = 1
    ecutwfc = 18.0
    occupations = 'smearing'
    smearing = 'fermi-dirac'
    degauss = 0.1d0
 /

 &ELECTRONS
 /

ATOMIC_SPECIES
 Al  26.982  Al.pz-vbc.UPF

ATOMIC_POSITIONS crystal
 Al 0.00 0.00 0.00

# Path here goes: Γ X U|K Γ L W X
K_POINTS crystal_b
  8
 0.000 0.000 0.000 30 !Γ
 0.500 0.000 0.500 30 !X
 0.625 0.250 0.625 00 !U
 0.375 0.375 0.750 30 !K
 0.000 0.000 0.000 30 !Γ
 0.500 0.500 0.500 30 !L
 0.250 0.500 0.750 30 !W
 0.500 0.500 1.000 00 !X
