&CONTROL
    pseudo_dir = '../../pseudo'
    calculation = 'bands'
 /

 &SYSTEM
   ibrav = 6
   A = 4.58
   C = 2.95
   nat = 6
   ntyp = 2
   ecutwfc = 30.0
   input_dft = 'PBE'
   nbnd = 64
 /

 &ELECTRONS
 /

ATOMIC_SPECIES
 Ti 47.867  Ti.pbe-sp-van_ak.UPF
 O  15.999  O.pbe-van_ak.UPF

ATOMIC_POSITIONS angstrom
 Ti 0.000000 0.000000 0.00000
 Ti 0.500000 0.500000 0.50000
 O  0.304937 0.304937 0.00000
 O  0.804937 0.804937 0.00000
 O  0.304937 0.804937 0.50000
 O  0.804937 0.304937 0.50000

K_POINTS crystal_b
8
0.000 0.000 0.000 10
0.500 0.000 0.000 10
0.500 0.500 0.000 10
0.000 0.000 0.000 10
0.000 0.000 0.500 10
0.500 0.000 0.500 10
0.500 0.500 0.500 10
0.000 0.000 0.500 10
