 &CONTROL
    pseudo_dir = '.'
    calculation = 'relax'
    prefix = 'CD'
    disk_io = 'low'
    tprnfor = .true.
    tstress = .true.
    etot_conv_thr = 1.0D-9
    forc_conv_thr = 1.0D-6
 /

 &SYSTEM
    ibrav =  2
    A = 3.53
    nat = 2
    ntyp = 1
    ecutwfc = 150.0
 /

 &ELECTRONS
 /

&IONS
/

ATOMIC_SPECIES
 C  12.011  C.pz-vbc.UPF

ATOMIC_POSITIONS crystal
 C 0.00 0.00 0.00
 C 0.25 0.25 0.25

K_POINTS automatic
  8 8 8 0 0 0
