&CONTROL
   pseudo_dir = '.'
/

&SYSTEM
   ibrav = 0
   nat = 20
   ntyp = 1
   ecutwfc = 18.0
/

&ELECTRONS
/

ATOMIC_SPECIES
C  12.011  C.pz-vbc.UPF

ATOMIC_POSITIONS angstrom
C 11.21613125105699 13.910701474601511 10.000000026638821
C 9.99297128321691 14.095333002451143 9.999999961356625
C 8.68523393554606 13.879018412627897 10.000000114652295
C 7.586984994723885 13.309514139721436 9.999999803925554
C 6.656443044753223 12.365280734232737 10.000000325266083
C 6.102867970963187 11.258869252116053 9.999999866719252
C 5.904894377203914 9.947975901795159 10.000000838672273
C 6.1071146010546595 8.727435437812646 9.999999414172608
C 6.717338726201017 7.5506641318844565 10.000000638028084
C 7.598216950080475 6.682057499598219 10.000000490188432
C 8.783834458442312 6.089301949766126 9.999999161327725
C 10.006990829621714 5.904666997548856 10.000000364399131
C 11.314716350943227 6.120975175152012 9.999999627876747
C 12.412963720607408 6.690474491042071 10.000000475263729
C 13.343538522626744 7.634674676349421 9.999999559624362
C 13.89711185022691 8.741088641468863 10.00000068317644
C 14.095105622796087 10.051989692386423 10.000000379190654
C 13.89286373601645 11.272531054228466 10.000000074808698
C 13.282635571279792 12.449316585639068 9.99999986032461
C 12.401759778369463 13.31793433397074 10.000000160331862

K_POINTS gamma

CELL_PARAMETERS angstrom
20.0  0.0  0.0
 0.0 20.0  0.0
 0.0  0.0 20.0
