 &CONTROL
    pseudo_dir = '.'
    prefix = 'Fe'
 /

 &SYSTEM
    ibrav = 3
    A = 2.856
    nat = 1
    ntyp = 1
    ecutwfc = 60.0
    occupations = 'smearing'
    degauss = 0.01
    nspin = 2
    starting_magnetization = 1.0
 /

 &ELECTRONS
 /

ATOMIC_SPECIES
 Fe  55.85  Fe.pz-nd-rrkjus.UPF

ATOMIC_POSITIONS crystal
 Fe 0.0 0.0 0.0

K_POINTS automatic
 8 8 8 1 1 1
