&BANDS
    prefix = 'Fe'
    spin_component = 2
 /
