 &CONTROL
    pseudo_dir = '.'
 /

 &SYSTEM
    ibrav = 1
    A = 15.0
    nat = 5
    ntyp = 2
    ecutwfc = 18.0
 /

 &ELECTRONS
 /

ATOMIC_SPECIES
 He   4.008  He.pbe-mt_fhi

ATOMIC_POSITIONS angstrom
 He  0.0       0.0       0.0

K_POINTS gamma
