&CONTROL
   pseudo_dir = '.'
/

&SYSTEM
   ibrav = 0
   nat = 20
   ntyp = 1
   ecutwfc = 18.0
/

&ELECTRONS
/

ATOMIC_SPECIES
C  12.011  C.pz-vbc.UPF

ATOMIC_POSITIONS angstrom
C 7.469564666478045 8.64762613864449 7.982515488292525
C 7.597893609523897 9.84970058833715 8.461372595608585
C 7.923541621359141 10.890740883300635 9.081993034681718
C 7.803267950669253 7.418618358360938 8.07867111441465
C 8.01206247348679 10.023814817052578 12.928247107349504
C 9.215332710755707 12.312423642569776 10.717687779481347
C 9.038434128938334 11.387325869923352 9.672161128682808
C 9.173126706201332 9.480918043570087 12.90388338657253
C 10.443466929853324 8.72447778246991 9.725957137729464
C 10.39402321060016 10.887182287987805 9.246092009053104
C 10.685915001327226 9.568044207687583 8.618759838057418
C 10.532398908288645 12.581381641639059 10.919072990822832
C 10.422739150593674 8.567744523371147 10.942198474096099
C 10.29684272810412 9.237582208521104 12.159750508091054
C 11.389474550427952 9.228590291413525 7.531520183781898
C 11.279278561993646 12.508957020519539 9.468382710377753
C 11.48941641775084 11.316198032803058 10.100001127138126
C 11.151073044778228 11.458927757356701 11.552906141307279
C 10.97178356572585 10.414506791365381 12.334541638078012
C 12.530435333521954 8.90589852433175 7.071752892650497

K_POINTS gamma

CELL_PARAMETERS angstrom
20.0  0.0  0.0
 0.0 20.0  0.0
 0.0  0.0 20.0
