&CONTROL
   pseudo_dir = '.'
/

&SYSTEM
   ibrav = 0
   nat = 20
   ntyp = 1
   ecutwfc = 18.0
/

&ELECTRONS
/

ATOMIC_SPECIES
C  12.011  C.pz-vbc.UPF

ATOMIC_POSITIONS angstrom
C 11.259394763121334 12.668522845147194 9.680002443774988
C 10.048027779294497 13.306498278141685 9.730806926344048
C 8.796944073080443 12.721092972566836 9.908133982134618
C 7.61921118027207 11.89776155610045 10.079145331208949
C 6.86598463933502 10.688752372695081 10.118309781263838
C 6.820120105965172 9.432318313769905 10.306224426249104
C 7.650890572246617 8.167414216280733 10.366148196038292
C 8.44096517277573 6.8906925482658945 10.298384955279827
C 9.881267782507408 6.693501721858315 10.256697900688382
C 11.287678538199144 6.824688402687178 10.139521263744012
C 12.230928095930613 7.990469511883926 9.913126338119143
C 13.13696658064637 9.210992692771258 9.80472684563749
C 13.17987989403483 10.469156215134117 9.72201099870463
C 12.322198256756447 11.626000839031512 9.633851803961706
C 11.037675756608932 11.262096800632374 9.749797866872708
C 8.91003962424044 11.346130925510794 9.979555446524342
C 9.934151168046698 10.495822381869521 9.917625899797395
C 11.13085949279829 8.742205201959047 9.91261169617793
C 9.968065550632007 8.131019289884112 10.108045160215426
C 8.832970362041982 8.784872966630198 10.149192920905044

K_POINTS gamma

CELL_PARAMETERS angstrom
20.0  0.0  0.0
 0.0 20.0  0.0
 0.0  0.0 20.0
