 &input
   fildyn = 'Siyyyy-matdyn'
   zasr = 'simple'
   flfrc = 'Siyyyy.fc'
 /
