&CONTROL
   pseudo_dir = '.'
/

&SYSTEM
   ibrav = 0
   nat = 20
   ntyp = 1
   ecutwfc = 18.0
/

&ELECTRONS
/

ATOMIC_SPECIES
C  12.011  C.pz-vbc.UPF

ATOMIC_POSITIONS angstrom
C 10.37164330269929 12.040354970757315 9.999984237600687
C 9.628336425062837 7.959645029242685 9.999986469781733
C 11.576589585610595 11.347154860626295 9.99998479003142
C 10.381066480966613 8.429869710577025 11.173147337603105
C 9.61891045562588 11.57011274473143 11.173148893694336
C 8.423410414389405 8.65283229837085 9.999986346602341
C 9.618911323940523 11.570111487184528 8.82681376760934
C 10.381068277586738 8.429870566046239 8.826820238334946
C 8.440762888896515 10.896899333255282 9.284970398496142
C 9.621957370962669 9.34278848346274 8.062466472102201
C 11.548892680434559 10.460009746425108 8.826803594625218
C 11.559227116706564 9.103064602732074 10.714985870644263
C 10.37802457714236 10.657183053797283 11.937528856311477
C 8.45110162217424 9.539962263452601 11.173155233333002
C 11.559228574721768 9.103063696032162 9.284970166956825
C 10.37802262790523 10.657183257138556 8.062458993431836
C 8.451096240129703 9.539964974208218 8.8268078618978
C 8.44076415634739 10.896899113538618 10.714983093271114
C 9.621952372618361 9.342775820216394 11.937541006568168
C 11.54889673169906 10.460009402776173 11.173163889560175

K_POINTS gamma

CELL_PARAMETERS angstrom
20.0  0.0  0.0
 0.0 20.0  0.0
 0.0  0.0 20.0
