 &CONTROL
    pseudo_dir = '.'
 /

 &SYSTEM
    ibrav = 1
    A = 20.0
    nat = 20
    ntyp = 1
    ecutwfc = 18.0
 /

 &ELECTRONS
 /

ATOMIC_SPECIES
 C  12.011  C.pz-vbc.UPF

ATOMIC_POSITIONS angstrom
 C  3.71650141418275737E-01  2.04036720002873695E+00 -1.13832211891087461E-06
 C -3.71656736218178130E-01 -2.04034274148589390E+00  1.09385892650302205E-06
 C  1.57659642432958003E+00  1.34716708989771594E+00 -5.85891386911880055E-07
 C  3.81073319685598211E-01 -1.57011806015155364E+00  1.17316196168029752E+00
 C -3.81082705655134468E-01  1.57012497400285134E+00  1.17316351777152938E+00
 C -1.57658274689160982E+00 -1.34715547235772792E+00  9.70679534391294663E-07
 C -3.81081837340491725E-01  1.57012371645594961E+00 -1.17317160831346756E+00
 C  3.81075116305723161E-01 -1.57011720468233995E+00 -1.17316513758786067E+00
 C -1.55923027238450018E+00  8.96911562526703898E-01 -7.15014977426664200E-01
 C -3.78035790318347109E-01 -6.57199287265838539E-01 -1.93751890382060532E+00
 C  1.54889951915354396E+00  4.60021975696528307E-01 -1.17318178129758732E+00
 C  1.55923395542554921E+00 -8.96923167996504622E-01  7.15000494721455992E-01
 C  3.78031415861344922E-01  6.57195283068704117E-01  1.93754348038867152E+00
 C -1.54889153910677391E+00 -4.60025507275977075E-01  1.17316985741019497E+00
 C  1.55923541344075334E+00 -8.96924074696416662E-01 -7.15015208965981697E-01
 C  3.78029466624214938E-01  6.57195486409977825E-01 -1.93752638249097098E+00
 C -1.54889692115131306E+00 -4.60022796520360933E-01 -1.17317751402500581E+00
 C -1.55922900493362548E+00  8.96911342810038592E-01  7.14997717348307193E-01
 C -3.78040788662654448E-01 -6.57211950512185394E-01  1.93755563064536118E+00
 C  1.54890357041804538E+00  4.60021632047593720E-01  1.17317851363736891E+00

K_POINTS gamma
