 &CONTROL
    pseudo_dir = '.'
 /

 &SYSTEM
    ibrav = 1
    A = 20.0
    nat = 20
    ntyp = 1
    ecutwfc = 18.0
 /

 &ELECTRONS
 /

ATOMIC_SPECIES
 C  12.011  C.pz-vbc.UPF

ATOMIC_POSITIONS angstrom
 C  1.21614537227046804E+00  3.91071129538184659E+00 -6.46583787552348553E-08
 C -7.01459556961039638E-03  4.09534282323147814E+00 -1.29940573768593777E-07
 C -1.31475194324046063E+00  3.87902823340823222E+00  2.33550950745558667E-08
 C -2.41300088406263669E+00  3.30952396050177189E+00 -2.87371645210859108E-07
 C -3.34354283403329822E+00  2.36529055501307095E+00  2.33968882661716741E-07
 C -3.89711790782333445E+00  1.25887907289638723E+00 -2.24577946590109064E-07
 C -4.09509150158260748E+00 -5.20142774245063860E-02  7.47375074711394316E-07
 C -3.89287127773186192E+00 -1.27255474140701952E+00 -6.77124591281920406E-07
 C -3.28264715258550410E+00 -2.44932604733520920E+00  5.46730885413141068E-07
 C -2.40176892870604686E+00 -3.31793267962144656E+00  3.98891232580272271E-07
 C -1.21615142034420853E+00 -3.91068822945353922E+00 -9.29969473726664380E-07
 C  7.00495083519157499E-03 -4.09532318167080955E+00  2.73101931707102728E-07
 C  1.31473047215670591E+00 -3.87901500406765409E+00 -4.63420451994957509E-07
 C  2.41297784182088559E+00 -3.30951568817759378E+00  3.83966529755020101E-07
 C  3.34355264384022322E+00 -2.36531550287024439E+00 -5.31672838063398372E-07
 C  3.89712597144038808E+00 -1.25890153775080216E+00  5.91879240477877009E-07
 C  4.09511974400956635E+00  5.19995131667582156E-02  2.87893455444988129E-07
 C  3.89287785722992830E+00  1.27254087500880098E+00 -1.64885011884746637E-08
 C  3.28264969249327088E+00  2.44932640641940180E+00 -2.30972589050375674E-07
 C  2.40177389958294141E+00  3.31794415475107574E+00  6.90346618045165621E-08

K_POINTS gamma
