 &CONTROL
    pseudo_dir = '.'
 /

 &SYSTEM
    ibrav = 1
    A = 20.0
    nat = 20
    ntyp = 1
    ecutwfc = 18.0
 /

 &ELECTRONS
 /

ATOMIC_SPECIES
 C  12.011  C.pz-vbc.UPF

ATOMIC_POSITIONS angstrom
 C  2.35363091516120615E-01  1.05261867615916449E+00  7.19528613370491343E-01
 C  3.63692034561971855E-01  2.25469312585182369E+00  1.19838572068655269E+00
 C  6.89340046397216688E-01  3.29573342081530951E+00  1.81900615975968449E+00
 C  5.69066375707327543E-01 -1.76389104124387325E-01  8.15684239492617813E-01
 C  7.77860898524864175E-01  2.42880735456725372E+00  5.66526023242747101E+00
 C  1.98113113579378264E+00  4.71741618008444963E+00  3.45470090455931400E+00
 C  1.80423255397640969E+00  3.79231840743802584E+00  2.40917425376077388E+00
 C  1.93892513123940691E+00  1.88591058108476184E+00  5.64089651165049677E+00
 C  3.20926535489139875E+00  1.12947031998458436E+00  2.46297026280743081E+00
 C  3.15982163563823448E+00  3.29217482550248031E+00  1.98310513413106992E+00
 C  3.45171342636530065E+00  1.97303674520225747E+00  1.35577296313538520E+00
 C  3.29819733332672049E+00  4.98637417915373415E+00  3.65608611590079846E+00
 C  3.18853757563175000E+00  9.72737060885821125E-01  3.67921159917406504E+00
 C  3.06264115314219554E+00  1.64257474603577958E+00  4.89676363316902030E+00
 C  4.15527297546602803E+00  1.63358282892819950E+00  2.68533308859864539E-01
 C  4.04507698703172025E+00  4.91394955803421318E+00  2.20539583545572082E+00
 C  4.25521484278891560E+00  3.72119057031773259E+00  2.83701425221609371E+00
 C  3.91687146981630319E+00  3.86392029487137467E+00  4.28991926638524568E+00
 C  3.73758199076392605E+00  2.81949932888005605E+00  5.07155476315597920E+00
 C  5.29623375856002987E+00  1.31089106184642401E+00 -1.91233982271536790E-01

K_POINTS gamma
