&CONTROL
    pseudo_dir = '.'
/

&SYSTEM
    ibrav = 0
    nat = 6
    ntyp = 2
    ecutwfc = 18.0
/

&ELECTRONS
/

ATOMIC_SPECIES
 C  12.011  C.pz-vbc.UPF
 H   1.008  H.pz-vbc.UPF

ATOMIC_POSITIONS angstrom
H 8.640919555229047 7.567921244094058 8.543398016678783
C 8.160037175618683 7.49558326741054 7.564300587175643
H 8.81911098412956 7.415346119660081 6.6957271094092246
C 6.840041142608151 7.5045512901824685 7.435746668349063
H 6.180889015870438 7.584653880339918 8.304272890590775
H 6.359260894199 7.432075051665483 6.456601983321217

K_POINTS gamma

CELL_PARAMETERS angstrom
15.0  0.0  0.0
 0.0 15.0  0.0
 0.0  0.0 15.0
