 &CONTROL
    pseudo_dir = '.'
 /

 &SYSTEM
    ibrav = 1
    A = 15.0
    nat = 6
    ntyp = 2
    ecutwfc = 18.0
 /

 &ELECTRONS
 /

ATOMIC_SPECIES
 C  12.011  C.pz-vbc.UPF
 H   1.008  H.pz-vbc.UPF

ATOMIC_POSITIONS bohr
 H 8.6409195552290470  7.5679212440940580  8.5433980166787826
 C 8.1600371756186831  7.4955832674105398  7.5643005871756426
 H 8.8191109841295603  7.4153461196600814  6.6957271094092246
 C 6.8400411426081513  7.5045512901824685  7.4357466683490632
 H 6.1808890158704379  7.5846538803399177  8.3042728905907754
 H 6.3592608941990001  7.4320750516654828  6.4566019833212174


K_POINTS gamma
