 &CONTROL
    pseudo_dir = '.'
    disk_io = 'none'
 /

 &SYSTEM
    ibrav = 1
    A = 15.0
    nat = 5
    ntyp = 2
    ecutwfc = xxxx
 /

 &ELECTRONS
    ! This is the default
    conv_thr = 1.0E-6
 /

ATOMIC_SPECIES
 C  12.011  C.pz-vbc.UPF
 H   1.008  H.pz-vbc.UPF

ATOMIC_POSITIONS angstrom
 C  0.0       0.0       0.0
 H  0.0       0.0       1.089
 H  1.026719  0.000000 -0.363000
 H -0.513360 -0.889165 -0.363000
 H -0.513360  0.889165 -0.363000

K_POINTS gamma
