 &CONTROL
    pseudo_dir = '../../pseudo'
 /

 &SYSTEM
   ibrav = 6
   A = 4.58
   C = 2.95
   nat = 6
   ntyp = 2
   ecutwfc = 30.0
   input_dft = 'PBE'
 /

 &ELECTRONS
 /

ATOMIC_SPECIES
 Ti 47.867  Ti.pbe-sp-van_ak.UPF
 O  15.999  O.pz-rrkjus.UPF

ATOMIC_POSITIONS crystal
 Ti 0.000000  0.000000 0.00000
 Ti 0.500000  0.500000 0.50000
 O  0.304937  0.304937 0.00000
 O -0.304937 -0.304937 0.00000
 O  0.804937  0.195063 0.50000
 O  0.195063  0.804937 0.50000

K_POINTS automatic
6 6 6 0 0 0
