 &CONTROL
    pseudo_dir = '.'
 /

 &SYSTEM
    ibrav = 1
    A = 15.0
    nat = 6
    ntyp = 2
    ecutwfc = 18.0
 /

 &ELECTRONS
 /

ATOMIC_SPECIES
 C  12.011  C.pz-vbc.UPF
 H   1.008  H.pz-vbc.UPF

ATOMIC_POSITIONS bohr
H 16.32889558 14.30126292 16.1446732
C 15.42015958 14.16456396 14.2944472
H 16.66562858 14.01293772 12.6530812
C 12.92572858 14.18151106 14.0515155
H 11.68011158 14.33288302 15.6927922
H 12.01718558 14.04455082 12.2012002


K_POINTS gamma
