 &input
   fildyn = 'matdyn'
   zasr = 'simple'
   flfrc = 'CD444.fc'
 /
