 &CONTROL
    pseudo_dir = '.'
 /

 &SYSTEM
    ibrav = 1
    A = 20.0
    nat = 20
    ntyp = 1
    ecutwfc = 18.0
 /

 &ELECTRONS
 /

ATOMIC_SPECIES
 C  12.011  C.pz-vbc.UPF

ATOMIC_POSITIONS angstrom
 C  1.54240151813103532E+00  4.00180274896731714E+00 -3.99186749262026019E-01
 C  3.31034534304198824E-01  4.63977818196180802E+00 -3.48382266692964904E-01
 C -9.20049171909855024E-01  4.05437287638696109E+00 -1.71055210902394728E-01
 C -2.09778206471822859E+00  3.23104145992057390E+00 -4.38618280653922622E-05
 C -2.85100860565527903E+00  2.02203227651520523E+00  3.91205882268233218E-02
 C -2.89687313902512678E+00  7.65598217590028662E-01  2.27035233212089627E-01
 C -2.06610267274368153E+00 -4.99305879899143379E-01  2.86959003001278468E-01
 C -1.27602807221456915E+00 -1.77602754791398154E+00  2.19195762242814146E-01
 C  1.64274537517108410E-01 -1.97321837432156144E+00  1.77508707651368308E-01
 C  1.57068529320884442E+00 -1.84203169349269791E+00  6.03320707069975176E-02
 C  2.51393485094031455E+00 -6.76250584295949642E-01 -1.66062854917870428E-01
 C  3.41997333565607065E+00  5.44272596591382718E-01 -2.74462347399524353E-01
 C  3.46288664904453070E+00  1.80243611895424016E+00 -3.57178194332383292E-01
 C  2.60520501176614960E+00  2.95928074285163545E+00 -4.45337389075306567E-01
 C  1.32068251161863293E+00  2.59537670445249802E+00 -3.29391326164306386E-01
 C -8.06953620749859435E-01  2.67941082933091801E+00 -9.96337465126712202E-02
 C  2.17157923056400359E-01  1.82910228568964439E+00 -1.61563293239617822E-01
 C  1.41386624780799175E+00  7.54851057791715851E-02 -1.66577496859084240E-01
 C  2.51072305641707683E-01 -5.35700806295763887E-01  2.88559671784128745E-02
 C -8.84022882948316657E-01  1.18152870450321773E-01  7.00037278680296776E-02

K_POINTS gamma
