 &CONTROL
    pseudo_dir = '.'
 /

 &SYSTEM
    ibrav = 1
    A = 10.0
    nat = 5
    ntyp = 3
    ecutwfc = 20.0
    ecutrho = 220.0
 /

 &ELECTRONS
 /

ATOMIC_SPECIES
 C  12.011  C.pz-vbc.UPF
 F  18.998  F.pz-n-rrkjus_psl.0.1.UPF
 Cl 35.453  Cl.pz-n-rrkjus_psl.0.1.UPF

ATOMIC_POSITIONS angstrom
C        0.000000000   0.000000000   0.000000000
Cl       0.998388223   1.050572111   0.998388223
Cl      -1.050572111  -0.998388223   0.998388223
Cl       0.998388223  -0.998388223  -1.050572111
F       -0.787582642   0.787582642  -0.787582642

K_POINTS automatic
1 1 1  0 0 0
